
#(C) 2017 by FIZ Karlsruhe - Leibniz Institute for Information Infrastructure.  All rights reserved.
data_193724-ICSD
_database_code_ICSD 193724
_audit_creation_date 2015-08-01
_chemical_name_systematic 'Europium platinum indium (1/1/4)'
_chemical_formula_structural 'Eu Pt In4'
_chemical_formula_sum 'Eu1 In4 Pt1'
_chemical_name_structure_type Al4NiY
_exptl_crystal_density_diffrn 9.41
_cell_measurement_temperature 300.
_publ_section_title
'Physical properties of Eu Pt In4 intermetallic antiferromagnet'
loop_
_citation_id
_citation_journal_full
_citation_year
_citation_journal_volume
_citation_page_first
_citation_page_last
_citation_journal_id_ASTM
primary 'Journal of Magnetism and Magnetic Materials' 2014 371 5 9 JMMMDC
loop_
_publ_author_name
'Rosa, P.F.S.'
'Jesus, C.B.R. de'
'Fisk, Z.'
'Pagliuso, P.G.'
_cell_length_a 4.542(1)
_cell_length_b 16.955(2)
_cell_length_c 7.389(1)
_cell_angle_alpha 90.
_cell_angle_beta 90.
_cell_angle_gamma 90.
_cell_volume 569.02
_cell_formula_units_Z 4
_symmetry_space_group_name_H-M 'C m c m'
_symmetry_Int_Tables_number 63
_refine_ls_R_factor_all 0.136
loop_
_symmetry_equiv_pos_site_id
_symmetry_equiv_pos_as_xyz
1 '-x, y, -z+1/2'
2 '-x, -y, z+1/2'
3 '-x, y, z'
4 '-x, -y, -z'
5 'x, -y, z+1/2'
6 'x, y, -z+1/2'
7 'x, -y, -z'
8 'x, y, z'
9 '-x+1/2, y+1/2, -z+1/2'
10 '-x+1/2, -y+1/2, z+1/2'
11 '-x+1/2, y+1/2, z'
12 '-x+1/2, -y+1/2, -z'
13 'x+1/2, -y+1/2, z+1/2'
14 'x+1/2, y+1/2, -z+1/2'
15 'x+1/2, -y+1/2, -z'
16 'x+1/2, y+1/2, z'
loop_
_atom_type_symbol
_atom_type_oxidation_number
Eu0+ 0
Pt0+ 0
In0+ 0
loop_
_atom_site_label
_atom_site_type_symbol
_atom_site_symmetry_multiplicity
_atom_site_Wyckoff_symbol
_atom_site_fract_x
_atom_site_fract_y
_atom_site_fract_z
_atom_site_B_iso_or_equiv
_atom_site_occupancy
_atom_site_attached_hydrogens
Eu1 Eu0+ 4 c 0 0.1266(2) 0.25 1.14(9) 1. 0
Pt1 Pt0+ 4 c 0 0.7765(2) 0.25 -0.981(1) 1. 0
In1 In0+ 8 f 0 0.3159(2) 0.0488(3) -1.514(1) 1. 0
In2 In0+ 4 c 0 0.9333(2) 0.25 -0.755(2) 1. 0
In3 In0+ 4 b 0 0.5 0 -0.912(2) 1. 0
#End of TTdata_193724-ICSD